# Solution for model Avocado_Price_Allocation
# Objective value = 3.5864739837006908e+01
price[Great_Lakes] 1.4894237753629658e+00
price[Midsouth] 1.3843605983434843e+00
price[Northeast] 1.8645529312412372e+00
price[Northern_New_England] 1.1922602204474164e+00
price[SouthCentral] 1.8782601731217814e+00
price[Southeast] 1.5719217536474759e+00
price[West] 1.9999999873311531e+00
price[Plains] 1.0276220041707735e+00
supplied_avacadoes_each_region[Great_Lakes] 3.2823475941525935e+00
supplied_avacadoes_each_region[Midsouth] 6.1685715934968286e+00
supplied_avacadoes_each_region[Northeast] 3.8886690035064282e+00
supplied_avacadoes_each_region[Northern_New_England] 9.1798394526580218e-01
supplied_avacadoes_each_region[SouthCentral] 4.1392536392773955e+00
supplied_avacadoes_each_region[Southeast] 3.9218006188755443e+00
supplied_avacadoes_each_region[West] 5.0039244590004222e+00
supplied_avacadoes_each_region[Plains] 2.67744914642499
predicted_avacadoes_sold_each_region[Great_Lakes] 3.28234757762774
predicted_avacadoes_sold_each_region[Midsouth] 3.2711895125863797e+00
predicted_avacadoes_sold_each_region[Northeast] 3.8886689952466114e+00
predicted_avacadoes_sold_each_region[Northern_New_England] 0.917983942720308
predicted_avacadoes_sold_each_region[SouthCentral] 4.1392536227566419e+00
predicted_avacadoes_sold_each_region[Southeast] 3.6845311661526372e+00
predicted_avacadoes_sold_each_region[West] 4.7589544343878289e+00
predicted_avacadoes_sold_each_region[Plains] 2.4850196426203226e+00
predicted_avacadoes_wasted_each_region[Great_Lakes] 1.6524853682176427e-08
predicted_avacadoes_wasted_each_region[Midsouth] 2.8973820809104485e+00
predicted_avacadoes_wasted_each_region[Northeast] 8.2598165561990134e-09
predicted_avacadoes_wasted_each_region[Northern_New_England] 2.5454942158957207e-09
predicted_avacadoes_wasted_each_region[SouthCentral] 1.6520753980116193e-08
predicted_avacadoes_wasted_each_region[Southeast] 2.3726945272290698e-01
predicted_avacadoes_wasted_each_region[West] 2.4497002461259351e-01
predicted_avacadoes_wasted_each_region[Plains] 1.9242950380466758e-01
demand[Great_Lakes] 3.2823475787364758e+00
demand[Midsouth] 3.2711895136989222e+00
demand[Northeast] 3.8886689961824672e+00
demand[Northern_New_England] 9.1798394668440153e-01
demand[SouthCentral] 4.1392536236358470e+00
demand[Southeast] 3.6845311671403507e+00
demand[West] 4.7589544351741493e+00
demand[Plains] 2.4850196440847783e+00
pipe.col_trans.std_scaler.year[Great_Lakes] 2022
pipe.col_trans.std_scaler.year[Midsouth] 2022
pipe.col_trans.std_scaler.year[Northeast] 2022
pipe.col_trans.std_scaler.year[Northern_New_England] 2022
pipe.col_trans.std_scaler.year[SouthCentral] 2022
pipe.col_trans.std_scaler.year[Southeast] 2022
pipe.col_trans.std_scaler.year[West] 2022
pipe.col_trans.std_scaler.year[Plains] 2022
pipe.col_trans.std_scaler.out[0,0] 1.6040839548441452e+00
pipe.col_trans.std_scaler.out[0,1] 1.7873468335408933e+00
pipe.col_trans.std_scaler.out[1,0] 1.1192424145791344e+00
pipe.col_trans.std_scaler.out[1,1] 1.7873468335408933e+00
pipe.col_trans.std_scaler.out[2,0] 3.3352156690565380e+00
pipe.col_trans.std_scaler.out[2,1] 1.7873468335408933e+00
pipe.col_trans.std_scaler.out[3,0] 2.3274492091063093e-01
pipe.col_trans.std_scaler.out[3,1] 1.7873468335408933e+00
pipe.col_trans.std_scaler.out[4,0] 3.3984713258402266e+00
pipe.col_trans.std_scaler.out[4,1] 1.7873468335408933e+00
pipe.col_trans.std_scaler.out[5,0] 1.9847924770392682e+00
pipe.col_trans.std_scaler.out[5,1] 1.7873468335408933e+00
pipe.col_trans.std_scaler.out[6,0] 3.9602715750550690e+00
pipe.col_trans.std_scaler.out[6,1] 1.7873468335408933e+00
pipe.col_trans.std_scaler.out[7,0] -5.2702123722915584e-01
pipe.col_trans.std_scaler.out[7,1] 1.7873468335408933e+00
pipe.lin_reg.feat0[0] 0
pipe.lin_reg.feat1[0] 0
pipe.lin_reg.feat2[0] 0
pipe.lin_reg.feat3[0] 0
pipe.lin_reg.feat4[0] 0
pipe.lin_reg.feat5[0] 0
pipe.lin_reg.feat6[0] 0
pipe.lin_reg.feat9[0] 0
pipe.lin_reg.feat0[1] 1
pipe.lin_reg.feat1[1] 0
pipe.lin_reg.feat2[1] 0
pipe.lin_reg.feat3[1] 0
pipe.lin_reg.feat4[1] 0
pipe.lin_reg.feat5[1] 0
pipe.lin_reg.feat6[1] 0
pipe.lin_reg.feat9[1] 0
pipe.lin_reg.feat0[2] 0
pipe.lin_reg.feat1[2] 1
pipe.lin_reg.feat2[2] 0
pipe.lin_reg.feat3[2] 0
pipe.lin_reg.feat4[2] 0
pipe.lin_reg.feat5[2] 0
pipe.lin_reg.feat6[2] 0
pipe.lin_reg.feat9[2] 0
pipe.lin_reg.feat0[3] 0
pipe.lin_reg.feat1[3] 0
pipe.lin_reg.feat2[3] 1
pipe.lin_reg.feat3[3] 0
pipe.lin_reg.feat4[3] 0
pipe.lin_reg.feat5[3] 0
pipe.lin_reg.feat6[3] 0
pipe.lin_reg.feat9[3] 0
pipe.lin_reg.feat0[4] 0
pipe.lin_reg.feat1[4] 0
pipe.lin_reg.feat2[4] 0
pipe.lin_reg.feat3[4] 0
pipe.lin_reg.feat4[4] 1
pipe.lin_reg.feat5[4] 0
pipe.lin_reg.feat6[4] 0
pipe.lin_reg.feat9[4] 0
pipe.lin_reg.feat0[5] 0
pipe.lin_reg.feat1[5] 0
pipe.lin_reg.feat2[5] 0
pipe.lin_reg.feat3[5] 0
pipe.lin_reg.feat4[5] 0
pipe.lin_reg.feat5[5] 1
pipe.lin_reg.feat6[5] 0
pipe.lin_reg.feat9[5] 0
pipe.lin_reg.feat0[6] 0
pipe.lin_reg.feat1[6] 0
pipe.lin_reg.feat2[6] 0
pipe.lin_reg.feat3[6] 0
pipe.lin_reg.feat4[6] 0
pipe.lin_reg.feat5[6] 0
pipe.lin_reg.feat6[6] 1
pipe.lin_reg.feat9[6] 0
pipe.lin_reg.feat0[7] 0
pipe.lin_reg.feat1[7] 0
pipe.lin_reg.feat2[7] 0
pipe.lin_reg.feat3[7] 1
pipe.lin_reg.feat4[7] 0
pipe.lin_reg.feat5[7] 0
pipe.lin_reg.feat6[7] 0
pipe.lin_reg.feat9[7] 0
